QBPP_HJ*_40_025_20_4
40 117 14
33 29 49 24 21 31 43 12 29 19 49 15 32 46 45 25 18 1 42 50 22 49 5 26 37 48 46 15 14 18 46 3 16 40 38 10 42 5 30 41
    0    0    0  -27    0    0  -24    0    0   16    0    0  -41    0    0   26    0  -14    0    0  -46   24    0    0  -41    0  -38    0   26    0    0    0    0   22    0  -10    0    0  -48    0
    0    0  -15    0    0    0    0    0  -17    0    0    0    0    0   15  -31  -43    0    0    0    0    0   11   16    0   20    0    0    0    0    0   29    0    0  -31    0  -23    0    0    0
    0  -15    0    0  -42    0    0    0    8    0    0    0    0    0    0   43   23    0    0    0    0    0    0   14    0    0    0    0    0   -4   17    0    0    0    0    0    0    0   40    0
  -27    0    0    0    0    0    0   -1    0    0   46    0   20    0    0    0    0    0    0  -44    0    0    0  -26    0    0    0    0    0    0    0    0    0    0    0  -33   -3    0    0    0
    0    0  -42    0    0   -9    0    0    0    0    0    0    0    0    0    0    0    8  -12    0    0    0    0   47   -5    0  -33    0  -37    0    0    0    0    0  -44    0    0    0    0    0
    0    0    0    0   -9    0    0    0    0    0    0    0    0    0    0  -49    0    0    0  -50    0    0  -28    0    0    0    6   40   -8    0    0    0  -49    0    0    0    0    0    0    0
  -24    0    0    0    0    0    0  -21    0    0    0  -48    0    0    0    0   30    0    1  -19    0    0    0    0   16    0    0  -23    6    0    0    0    0    0    0    0    0    0    0   34
    0    0    0   -1    0    0  -21    0    0    0    0  -18    0   50   -6    0    0    0  -49    0    0   22   29    0    0    0    0   47   10    0    0   49    3    0    0    0  -31   46    0    6
    0  -17    8    0    0    0    0    0    0    0    0    0  -40    0   49  -17    0   19    1    0  -26   -9    0   -1    0    0    0    0    0    0   12    0   37    0   12    0    0    0    0   42
   16    0    0    0    0    0    0    0    0    0    0    0    0   -7    0    0    0    0    0  -44    0    0    0    0  -30    0    0    0  -40    0  -48   -4   37   35    0  -43    0    0   -2   -1
    0    0    0   46    0    0    0    0    0    0    0    0    0    0    0    0    0    0    0    0    0    0    0    0   21  -29    0    0   31    1    0    0   10    0  -10    0    0    0    0    0
    0    0    0    0    0    0  -48  -18    0    0    0    0    0    0    0   21    0    0    0    0    0    0    0   44    0   13  -16    0  -35    7    0    0    0    0    0    0    0    0    0    0
  -41    0    0   20    0    0    0    0  -40    0    0    0    0    0    0    0    0    0    0    0    0    0    0    0    0  -37    0    0    0    0    0    0   42    0    0    0   -1    0    0    0
    0    0    0    0    0    0    0   50    0   -7    0    0    0    0    0    0    0    0    0   14    0    0   -6    0    0    0    0    0    0    0  -20    0    1    0  -27    0    0   11    0  -21
    0   15    0    0    0    0    0   -6   49    0    0    0    0    0    0  -16    0   30    0    0    0    0    0   33    0  -42    0    0    0  -47  -36  -46    0   -1  -11    0    0    0    0    0
   26  -31   43    0    0  -49    0    0  -17    0    0   21    0    0  -16    0    0    0    0    0    0  -42    0    0    1    0    0   50    0    0    0    0    0    0    0    0   -5    0    0   49
    0  -43   23    0    0    0   30    0    0    0    0    0    0    0    0    0    0    0   43    0    0    0    0    0    0    0    0    0    0   16    0    0   23   23    0    0   44    0   43    0
  -14    0    0    0    8    0    0    0   19    0    0    0    0    0   30    0    0    0    0  -20    0   30    0    0    0    0    0    0    0    0  -13   24  -15    0    0    0  -34   -9    0    0
    0    0    0    0  -12    0    1  -49    1    0    0    0    0    0    0    0   43    0    0    0    0   45   31    0   12    0    0    0    0    0  -23    0    0   15    0    0    0    0  -25    0
    0    0    0  -44    0  -50  -19    0    0  -44    0    0    0   14    0    0    0  -20    0    0    0    0    0    0    0    0    0    0    0    0   29    0    0    0    0    0    0    0    0    0
  -46    0    0    0    0    0    0    0  -26    0    0    0    0    0    0    0    0    0    0    0    0    0    0    0   45    0    0    0    0    0    0    0    0    0    0    0    0    0    0    0
   24    0    0    0    0    0    0   22   -9    0    0    0    0    0    0  -42    0   30   45    0    0    0   47    0    0    0    0    0    0  -31   11  -50   28    0    0    0    0   35    0    0
    0   11    0    0    0  -28    0   29    0    0    0    0    0   -6    0    0    0    0   31    0    0   47    0    0    0  -17   21    0    0    0   22    0    0    0    0    0   17    0    0    0
    0   16   14  -26   47    0    0    0   -1    0    0   44    0    0   33    0    0    0    0    0    0    0    0    0    0    1    0    0    0    0    0   -1    0    0   -6   42    0    0    0  -42
  -41    0    0    0   -5    0   16    0    0  -30   21    0    0    0    0    1    0    0   12    0   45    0    0    0    0  -21    0    0  -19    0    8    0    0    0    0    0    0    0    0    0
    0   20    0    0    0    0    0    0    0    0  -29   13  -37    0  -42    0    0    0    0    0    0    0  -17    1  -21    0   45    0   48   33    0    0    0   -7    0    0   45    0  -37    0
  -38    0    0    0  -33    6    0    0    0    0    0  -16    0    0    0    0    0    0    0    0    0    0   21    0    0   45    0   49    0    0    0   17   46    0    0    0   41    0    0    0
    0    0    0    0    0   40  -23   47    0    0    0    0    0    0    0   50    0    0    0    0    0    0    0    0    0    0   49    0    0    0    0  -17   -3    0    0    0    0   -6    0  -12
   26    0    0    0  -37   -8    6   10    0  -40   31  -35    0    0    0    0    0    0    0    0    0    0    0    0  -19   48    0    0    0    0    0    0    0   14  -29  -43    0   22    0    0
    0    0   -4    0    0    0    0    0    0    0    1    7    0    0  -47    0   16    0    0    0    0  -31    0    0    0   33    0    0    0    0   33    0    0   25    0    0   24    0  -48    0
    0    0   17    0    0    0    0    0   12  -48    0    0    0  -20  -36    0    0  -13  -23   29    0   11   22    0    8    0    0    0    0   33    0    0    0    0   31    0    0    0    0  -31
    0   29    0    0    0    0    0   49    0   -4    0    0    0    0  -46    0    0   24    0    0    0  -50    0   -1    0    0   17  -17    0    0    0    0  -24  -40    0    0    0    0    0    0
    0    0    0    0    0  -49    0    3   37   37   10    0   42    1    0    0   23  -15    0    0    0   28    0    0    0    0   46   -3    0    0    0  -24    0    0    0    0    0    0   22    0
   22    0    0    0    0    0    0    0    0   35    0    0    0    0   -1    0   23    0   15    0    0    0    0    0    0   -7    0    0   14   25    0  -40    0    0   33    0    0    0   22    0
    0  -31    0    0  -44    0    0    0   12    0  -10    0    0  -27  -11    0    0    0    0    0    0    0    0   -6    0    0    0    0  -29    0   31    0    0   33    0    0    0  -47  -13    0
  -10    0    0  -33    0    0    0    0    0  -43    0    0    0    0    0    0    0    0    0    0    0    0    0   42    0    0    0    0  -43    0    0    0    0    0    0    0    0  -15    0    0
    0  -23    0   -3    0    0    0  -31    0    0    0    0   -1    0    0   -5   44  -34    0    0    0    0   17    0    0   45   41    0    0   24    0    0    0    0    0    0    0    0    0    0
    0    0    0    0    0    0    0   46    0    0    0    0    0   11    0    0    0   -9    0    0    0   35    0    0    0    0    0   -6   22    0    0    0    0    0  -47  -15    0    0  -27    0
  -48    0   40    0    0    0    0    0    0   -2    0    0    0    0    0    0   43    0  -25    0    0    0    0    0    0  -37    0    0    0  -48    0    0   22   22  -13    0    0  -27    0    0
    0    0    0    0    0    0   34    6   42   -1    0    0    0  -21    0   49    0    0    0    0    0    0    0  -42    0    0    0  -12    0    0  -31    0    0    0    0    0    0    0    0    0
